row=10;
column=10;
Board=[|0,0,0,0,0,0,0,0,0,2|0,0,1,0,0,0,6,0,0,3|0,0,0,0,0,0,0,0,0,0|0,0,1,0,0,0,0,0,0,0|0,0,0,0,0,0,0,0,0,0|0,0,0,0,5,0,0,0,2,0|0,0,0,0,0,0,0,0,3,0|0,0,0,0,5,0,0,0,0,0|0,0,0,0,0,0,0,0,0,0|0,0,0,0,0,0,0,0,0,0|];
right = [2,3,1,2,0,3,2,4,3,0];
bottom = [1,1,3,2,2,0,4,1,3,3];
